c Arquivo convertido de jagmesh8.mtx
p edge 1141 3162
e 1 2
e 1 18
e 1 29
e 2 3
e 2 18
e 2 19
e 2 29
e 2 40
e 3 4
e 3 19
e 3 20
e 3 40
e 3 44
e 4 5
e 4 20
e 4 21
e 4 44
e 4 47
e 5 6
e 5 21
e 5 22
e 5 47
e 5 49
e 6 7
e 6 8
e 6 22
e 6 39
e 6 49
e 7 8
e 7 39
e 7 60
e 7 224
e 8 9
e 8 22
e 8 224
e 8 232
e 9 10
e 9 22
e 9 25
e 9 231
e 9 232
e 10 11
e 10 25
e 10 27
e 10 230
e 10 231
e 11 12
e 11 27
e 11 28
e 11 229
e 11 230
e 12 13
e 12 14
e 12 28
e 12 197
e 12 229
e 13 14
e 13 197
e 13 213
e 14 15
e 14 28
e 15 16
e 15 26
e 15 28
e 16 17
e 16 23
e 16 26
e 17 18
e 17 19
e 17 23
e 18 19
e 19 20
e 19 23
e 20 21
e 20 23
e 20 24
e 21 22
e 21 24
e 21 25
e 22 25
e 23 24
e 23 26
e 24 25
e 24 26
e 24 27
e 25 27
e 26 27
e 26 28
e 27 28
e 29 30
e 29 40
e 30 31
e 30 40
e 30 41
e 31 32
e 31 41
e 31 42
e 32 33
e 32 42
e 32 43
e 33 34
e 33 35
e 33 43
e 34 35
e 34 50
e 34 71
e 35 36
e 35 43
e 35 50
e 35 61
e 36 37
e 36 43
e 36 46
e 36 61
e 36 65
e 37 38
e 37 46
e 37 48
e 37 65
e 37 68
e 38 39
e 38 48
e 38 49
e 38 68
e 38 70
e 39 49
e 39 60
e 39 70
e 40 41
e 40 44
e 41 42
e 41 44
e 41 45
e 42 43
e 42 45
e 42 46
e 43 46
e 44 45
e 44 47
e 45 46
e 45 47
e 45 48
e 46 48
e 47 48
e 47 49
e 48 49
e 50 51
e 50 61
e 50 71
e 50 82
e 51 52
e 51 61
e 51 62
e 51 82
e 51 86
e 52 53
e 52 62
e 52 63
e 52 86
e 52 89
e 53 54
e 53 63
e 53 64
e 53 89
e 53 91
e 54 55
e 54 56
e 54 64
e 54 81
e 54 91
e 55 56
e 55 81
e 55 102
e 55 249
e 56 57
e 56 64
e 57 58
e 57 64
e 57 67
e 58 59
e 58 67
e 58 69
e 59 60
e 59 69
e 59 70
e 60 70
e 61 62
e 61 65
e 62 63
e 62 65
e 62 66
e 63 64
e 63 66
e 63 67
e 64 67
e 65 66
e 65 68
e 66 67
e 66 68
e 66 69
e 67 69
e 68 69
e 68 70
e 69 70
e 71 72
e 71 82
e 72 73
e 72 82
e 72 83
e 73 74
e 73 83
e 73 84
e 74 75
e 74 84
e 74 85
e 75 76
e 75 77
e 75 85
e 76 77
e 76 92
e 76 113
e 77 78
e 77 85
e 77 92
e 77 103
e 78 79
e 78 85
e 78 88
e 78 103
e 78 107
e 79 80
e 79 88
e 79 90
e 79 107
e 79 110
e 80 81
e 80 90
e 80 91
e 80 110
e 80 112
e 81 91
e 81 102
e 81 112
e 82 83
e 82 86
e 83 84
e 83 86
e 83 87
e 84 85
e 84 87
e 84 88
e 85 88
e 86 87
e 86 89
e 87 88
e 87 89
e 87 90
e 88 90
e 89 90
e 89 91
e 90 91
e 92 93
e 92 103
e 92 113
e 92 124
e 93 94
e 93 103
e 93 104
e 93 124
e 93 128
e 94 95
e 94 104
e 94 105
e 94 128
e 94 131
e 95 96
e 95 105
e 95 106
e 95 131
e 95 133
e 96 97
e 96 98
e 96 106
e 96 123
e 96 133
e 97 98
e 97 123
e 97 144
e 97 239
e 97 260
e 98 99
e 98 106
e 98 239
e 98 253
e 99 100
e 99 106
e 99 109
e 99 252
e 99 253
e 100 101
e 100 109
e 100 111
e 100 251
e 100 252
e 101 102
e 101 111
e 101 112
e 101 250
e 101 251
e 102 112
e 102 249
e 102 250
e 103 104
e 103 107
e 104 105
e 104 107
e 104 108
e 105 106
e 105 108
e 105 109
e 106 109
e 107 108
e 107 110
e 108 109
e 108 110
e 108 111
e 109 111
e 110 111
e 110 112
e 111 112
e 113 114
e 113 124
e 114 115
e 114 124
e 114 125
e 115 116
e 115 125
e 115 126
e 116 117
e 116 126
e 116 127
e 117 118
e 117 119
e 117 127
e 118 119
e 118 134
e 118 155
e 119 120
e 119 127
e 119 134
e 119 145
e 120 121
e 120 127
e 120 130
e 120 145
e 120 149
e 121 122
e 121 130
e 121 132
e 121 149
e 121 152
e 122 123
e 122 132
e 122 133
e 122 152
e 122 154
e 123 133
e 123 144
e 123 154
e 124 125
e 124 128
e 125 126
e 125 128
e 125 129
e 126 127
e 126 129
e 126 130
e 127 130
e 128 129
e 128 131
e 129 130
e 129 131
e 129 132
e 130 132
e 131 132
e 131 133
e 132 133
e 134 135
e 134 145
e 134 155
e 134 166
e 135 136
e 135 145
e 135 146
e 135 166
e 135 170
e 136 137
e 136 146
e 136 147
e 136 170
e 136 173
e 137 138
e 137 147
e 137 148
e 137 173
e 137 175
e 138 139
e 138 140
e 138 148
e 138 165
e 138 175
e 139 140
e 139 165
e 139 186
e 139 281
e 139 297
e 140 141
e 140 148
e 141 142
e 141 148
e 141 151
e 142 143
e 142 151
e 142 153
e 143 144
e 143 153
e 143 154
e 144 154
e 145 146
e 145 149
e 146 147
e 146 149
e 146 150
e 147 148
e 147 150
e 147 151
e 148 151
e 149 150
e 149 152
e 150 151
e 150 152
e 150 153
e 151 153
e 152 153
e 152 154
e 153 154
e 155 156
e 155 166
e 156 157
e 156 166
e 156 167
e 157 158
e 157 167
e 157 168
e 158 159
e 158 168
e 158 169
e 159 160
e 159 161
e 159 169
e 160 161
e 160 176
e 161 162
e 161 169
e 161 176
e 161 187
e 162 163
e 162 169
e 162 172
e 162 187
e 162 191
e 163 164
e 163 172
e 163 174
e 163 191
e 163 194
e 164 165
e 164 174
e 164 175
e 164 194
e 164 196
e 165 175
e 165 186
e 165 196
e 166 167
e 166 170
e 167 168
e 167 170
e 167 171
e 168 169
e 168 171
e 168 172
e 169 172
e 170 171
e 170 173
e 171 172
e 171 173
e 171 174
e 172 174
e 173 174
e 173 175
e 174 175
e 176 177
e 176 187
e 177 178
e 177 187
e 177 188
e 178 179
e 178 188
e 178 189
e 179 180
e 179 189
e 179 190
e 180 181
e 180 182
e 180 190
e 181 182
e 181 308
e 182 183
e 182 190
e 182 308
e 182 316
e 183 184
e 183 190
e 183 193
e 183 315
e 183 316
e 184 185
e 184 193
e 184 195
e 184 314
e 184 315
e 185 186
e 185 195
e 185 196
e 185 313
e 185 314
e 186 196
e 186 281
e 186 313
e 187 188
e 187 191
e 188 189
e 188 191
e 188 192
e 189 190
e 189 192
e 189 193
e 190 193
e 191 192
e 191 194
e 192 193
e 192 194
e 192 195
e 193 195
e 194 195
e 194 196
e 195 196
e 197 198
e 197 213
e 197 214
e 197 229
e 198 199
e 198 214
e 198 215
e 198 229
e 198 233
e 199 200
e 199 215
e 199 216
e 199 233
e 199 236
e 200 201
e 200 216
e 200 217
e 200 236
e 200 238
e 201 202
e 201 203
e 201 217
e 201 228
e 201 238
e 202 203
e 202 228
e 202 323
e 202 344
e 202 365
e 203 204
e 203 217
e 203 323
e 203 337
e 204 205
e 204 217
e 204 220
e 204 336
e 204 337
e 205 206
e 205 220
e 205 222
e 205 335
e 205 336
e 206 207
e 206 222
e 206 223
e 206 334
e 206 335
e 207 208
e 207 209
e 207 223
e 207 333
e 207 334
e 208 209
e 208 333
e 209 210
e 209 223
e 210 211
e 210 221
e 210 223
e 211 212
e 211 218
e 211 221
e 212 213
e 212 214
e 212 218
e 213 214
e 214 215
e 214 218
e 215 216
e 215 218
e 215 219
e 216 217
e 216 219
e 216 220
e 217 220
e 218 219
e 218 221
e 219 220
e 219 221
e 219 222
e 220 222
e 221 222
e 221 223
e 222 223
e 224 225
e 224 232
e 225 226
e 225 232
e 225 235
e 226 227
e 226 235
e 226 237
e 227 228
e 227 237
e 227 238
e 228 238
e 229 230
e 229 233
e 230 231
e 230 233
e 230 234
e 231 232
e 231 234
e 231 235
e 232 235
e 233 234
e 233 236
e 234 235
e 234 236
e 234 237
e 235 237
e 236 237
e 236 238
e 237 238
e 239 240
e 239 253
e 239 260
e 239 271
e 240 241
e 240 253
e 240 256
e 240 271
e 240 275
e 241 242
e 241 256
e 241 258
e 241 275
e 241 278
e 242 243
e 242 258
e 242 259
e 242 278
e 242 280
e 243 244
e 243 245
e 243 259
e 243 270
e 243 280
e 244 245
e 244 270
e 244 369
e 244 370
e 244 385
e 245 246
e 245 259
e 246 247
e 246 257
e 246 259
e 247 248
e 247 254
e 247 257
e 248 249
e 248 250
e 248 254
e 249 250
e 250 251
e 250 254
e 251 252
e 251 254
e 251 255
e 252 253
e 252 255
e 252 256
e 253 256
e 254 255
e 254 257
e 255 256
e 255 257
e 255 258
e 256 258
e 257 258
e 257 259
e 258 259
e 260 261
e 260 271
e 261 262
e 261 271
e 261 272
e 262 263
e 262 272
e 262 273
e 263 264
e 263 273
e 263 274
e 264 265
e 264 266
e 264 274
e 265 266
e 265 406
e 265 421
e 265 442
e 266 267
e 266 274
e 266 406
e 266 414
e 267 268
e 267 274
e 267 277
e 267 413
e 267 414
e 268 269
e 268 277
e 268 279
e 268 412
e 268 413
e 269 270
e 269 279
e 269 280
e 269 411
e 269 412
e 270 280
e 270 385
e 270 411
e 271 272
e 271 275
e 272 273
e 272 275
e 272 276
e 273 274
e 273 276
e 273 277
e 274 277
e 275 276
e 275 278
e 276 277
e 276 278
e 276 279
e 277 279
e 278 279
e 278 280
e 279 280
e 281 282
e 281 297
e 281 298
e 281 313
e 282 283
e 282 298
e 282 299
e 282 313
e 282 317
e 283 284
e 283 299
e 283 300
e 283 317
e 283 320
e 284 285
e 284 300
e 284 301
e 284 320
e 284 322
e 285 286
e 285 287
e 285 301
e 285 312
e 285 322
e 286 287
e 286 312
e 286 483
e 286 498
e 287 288
e 287 301
e 287 483
e 287 491
e 288 289
e 288 301
e 288 304
e 288 490
e 288 491
e 289 290
e 289 304
e 289 306
e 289 489
e 289 490
e 290 291
e 290 306
e 290 307
e 290 488
e 290 489
e 291 292
e 291 293
e 291 307
e 291 462
e 291 488
e 292 293
e 292 446
e 292 447
e 292 462
e 293 294
e 293 307
e 294 295
e 294 305
e 294 307
e 295 296
e 295 302
e 295 305
e 296 297
e 296 298
e 296 302
e 297 298
e 298 299
e 298 302
e 299 300
e 299 302
e 299 303
e 300 301
e 300 303
e 300 304
e 301 304
e 302 303
e 302 305
e 303 304
e 303 305
e 303 306
e 304 306
e 305 306
e 305 307
e 306 307
e 308 309
e 308 316
e 309 310
e 309 316
e 309 319
e 310 311
e 310 319
e 310 321
e 311 312
e 311 321
e 311 322
e 312 322
e 313 314
e 313 317
e 314 315
e 314 317
e 314 318
e 315 316
e 315 318
e 315 319
e 316 319
e 317 318
e 317 320
e 318 319
e 318 320
e 318 321
e 319 321
e 320 321
e 320 322
e 321 322
e 323 324
e 323 337
e 323 344
e 323 355
e 324 325
e 324 337
e 324 340
e 324 355
e 324 359
e 325 326
e 325 340
e 325 342
e 325 359
e 325 362
e 326 327
e 326 342
e 326 343
e 326 362
e 326 364
e 327 328
e 327 329
e 327 343
e 327 354
e 327 364
e 328 329
e 328 354
e 328 519
e 328 535
e 329 330
e 329 343
e 330 331
e 330 341
e 330 343
e 331 332
e 331 338
e 331 341
e 332 333
e 332 334
e 332 338
e 333 334
e 334 335
e 334 338
e 335 336
e 335 338
e 335 339
e 336 337
e 336 339
e 336 340
e 337 340
e 338 339
e 338 341
e 339 340
e 339 341
e 339 342
e 340 342
e 341 342
e 341 343
e 342 343
e 344 345
e 344 355
e 344 365
e 344 375
e 345 346
e 345 355
e 345 356
e 345 375
e 345 379
e 346 347
e 346 356
e 346 357
e 346 379
e 346 382
e 347 348
e 347 357
e 347 358
e 347 382
e 347 384
e 348 349
e 348 350
e 348 358
e 348 374
e 348 384
e 349 350
e 349 374
e 349 395
e 349 546
e 350 351
e 350 358
e 350 546
e 350 554
e 351 352
e 351 358
e 351 361
e 351 553
e 351 554
e 352 353
e 352 361
e 352 363
e 352 552
e 352 553
e 353 354
e 353 363
e 353 364
e 353 551
e 353 552
e 354 364
e 354 519
e 354 551
e 355 356
e 355 359
e 356 357
e 356 359
e 356 360
e 357 358
e 357 360
e 357 361
e 358 361
e 359 360
e 359 362
e 360 361
e 360 362
e 360 363
e 361 363
e 362 363
e 362 364
e 363 364
e 365 366
e 365 375
e 366 367
e 366 375
e 366 376
e 367 368
e 367 376
e 367 377
e 368 369
e 368 377
e 368 378
e 369 370
e 369 378
e 370 371
e 370 378
e 370 385
e 370 396
e 371 372
e 371 378
e 371 381
e 371 396
e 371 400
e 372 373
e 372 381
e 372 383
e 372 400
e 372 403
e 373 374
e 373 383
e 373 384
e 373 403
e 373 405
e 374 384
e 374 395
e 374 405
e 375 376
e 375 379
e 376 377
e 376 379
e 376 380
e 377 378
e 377 380
e 377 381
e 378 381
e 379 380
e 379 382
e 380 381
e 380 382
e 380 383
e 381 383
e 382 383
e 382 384
e 383 384
e 385 386
e 385 396
e 385 411
e 386 387
e 386 396
e 386 397
e 386 411
e 386 415
e 387 388
e 387 397
e 387 398
e 387 415
e 387 418
e 388 389
e 388 398
e 388 399
e 388 418
e 388 420
e 389 390
e 389 391
e 389 399
e 389 410
e 389 420
e 390 391
e 390 410
e 390 431
e 390 561
e 390 577
e 391 392
e 391 399
e 392 393
e 392 399
e 392 402
e 393 394
e 393 402
e 393 404
e 394 395
e 394 404
e 394 405
e 395 405
e 396 397
e 396 400
e 397 398
e 397 400
e 397 401
e 398 399
e 398 401
e 398 402
e 399 402
e 400 401
e 400 403
e 401 402
e 401 403
e 401 404
e 402 404
e 403 404
e 403 405
e 404 405
e 406 407
e 406 414
e 406 421
e 406 432
e 407 408
e 407 414
e 407 417
e 407 432
e 407 436
e 408 409
e 408 417
e 408 419
e 408 436
e 408 439
e 409 410
e 409 419
e 409 420
e 409 439
e 409 441
e 410 420
e 410 431
e 410 441
e 411 412
e 411 415
e 412 413
e 412 415
e 412 416
e 413 414
e 413 416
e 413 417
e 414 417
e 415 416
e 415 418
e 416 417
e 416 418
e 416 419
e 417 419
e 418 419
e 418 420
e 419 420
e 421 422
e 421 432
e 421 442
e 421 452
e 422 423
e 422 432
e 422 433
e 422 452
e 422 456
e 423 424
e 423 433
e 423 434
e 423 456
e 423 459
e 424 425
e 424 434
e 424 435
e 424 459
e 424 461
e 425 426
e 425 427
e 425 435
e 425 451
e 425 461
e 426 427
e 426 451
e 426 472
e 426 588
e 427 428
e 427 435
e 427 588
e 427 596
e 428 429
e 428 435
e 428 438
e 428 595
e 428 596
e 429 430
e 429 438
e 429 440
e 429 594
e 429 595
e 430 431
e 430 440
e 430 441
e 430 593
e 430 594
e 431 441
e 431 561
e 431 593
e 432 433
e 432 436
e 433 434
e 433 436
e 433 437
e 434 435
e 434 437
e 434 438
e 435 438
e 436 437
e 436 439
e 437 438
e 437 439
e 437 440
e 438 440
e 439 440
e 439 441
e 440 441
e 442 443
e 442 452
e 443 444
e 443 452
e 443 453
e 444 445
e 444 453
e 444 454
e 445 446
e 445 454
e 445 455
e 446 447
e 446 455
e 447 448
e 447 455
e 447 462
e 447 473
e 448 449
e 448 455
e 448 458
e 448 473
e 448 477
e 449 450
e 449 458
e 449 460
e 449 477
e 449 480
e 450 451
e 450 460
e 450 461
e 450 480
e 450 482
e 451 461
e 451 472
e 451 482
e 452 453
e 452 456
e 453 454
e 453 456
e 453 457
e 454 455
e 454 457
e 454 458
e 455 458
e 456 457
e 456 459
e 457 458
e 457 459
e 457 460
e 458 460
e 459 460
e 459 461
e 460 461
e 462 463
e 462 473
e 462 488
e 463 464
e 463 473
e 463 474
e 463 488
e 463 492
e 464 465
e 464 474
e 464 475
e 464 492
e 464 495
e 465 466
e 465 475
e 465 476
e 465 495
e 465 497
e 466 467
e 466 468
e 466 476
e 466 487
e 466 497
e 467 468
e 467 487
e 467 508
e 467 613
e 468 469
e 468 476
e 469 470
e 469 476
e 469 479
e 470 471
e 470 479
e 470 481
e 471 472
e 471 481
e 471 482
e 472 482
e 473 474
e 473 477
e 474 475
e 474 477
e 474 478
e 475 476
e 475 478
e 475 479
e 476 479
e 477 478
e 477 480
e 478 479
e 478 480
e 478 481
e 479 481
e 480 481
e 480 482
e 481 482
e 483 484
e 483 491
e 483 498
e 483 509
e 484 485
e 484 491
e 484 494
e 484 509
e 484 513
e 485 486
e 485 494
e 485 496
e 485 513
e 485 516
e 486 487
e 486 496
e 486 497
e 486 516
e 486 518
e 487 497
e 487 508
e 487 518
e 488 489
e 488 492
e 489 490
e 489 492
e 489 493
e 490 491
e 490 493
e 490 494
e 491 494
e 492 493
e 492 495
e 493 494
e 493 495
e 493 496
e 494 496
e 495 496
e 495 497
e 496 497
e 498 499
e 498 509
e 499 500
e 499 509
e 499 510
e 500 501
e 500 510
e 500 511
e 501 502
e 501 511
e 501 512
e 502 503
e 502 504
e 502 512
e 503 504
e 503 603
e 503 624
e 504 505
e 504 512
e 504 603
e 504 617
e 505 506
e 505 512
e 505 515
e 505 616
e 505 617
e 506 507
e 506 515
e 506 517
e 506 615
e 506 616
e 507 508
e 507 517
e 507 518
e 507 614
e 507 615
e 508 518
e 508 613
e 508 614
e 509 510
e 509 513
e 510 511
e 510 513
e 510 514
e 511 512
e 511 514
e 511 515
e 512 515
e 513 514
e 513 516
e 514 515
e 514 516
e 514 517
e 515 517
e 516 517
e 516 518
e 517 518
e 519 520
e 519 535
e 519 536
e 519 551
e 520 521
e 520 536
e 520 537
e 520 551
e 520 555
e 521 522
e 521 537
e 521 538
e 521 555
e 521 558
e 522 523
e 522 538
e 522 539
e 522 558
e 522 560
e 523 524
e 523 525
e 523 539
e 523 550
e 523 560
e 524 525
e 524 550
e 524 672
e 524 687
e 524 708
e 525 526
e 525 539
e 525 672
e 525 680
e 526 527
e 526 539
e 526 542
e 526 679
e 526 680
e 527 528
e 527 542
e 527 544
e 527 678
e 527 679
e 528 529
e 528 544
e 528 545
e 528 677
e 528 678
e 529 530
e 529 531
e 529 545
e 529 645
e 529 677
e 530 531
e 530 645
e 530 661
e 531 532
e 531 545
e 532 533
e 532 543
e 532 545
e 533 534
e 533 540
e 533 543
e 534 535
e 534 536
e 534 540
e 535 536
e 536 537
e 536 540
e 537 538
e 537 540
e 537 541
e 538 539
e 538 541
e 538 542
e 539 542
e 540 541
e 540 543
e 541 542
e 541 543
e 541 544
e 542 544
e 543 544
e 543 545
e 544 545
e 546 547
e 546 554
e 547 548
e 547 554
e 547 557
e 548 549
e 548 557
e 548 559
e 549 550
e 549 559
e 549 560
e 550 560
e 551 552
e 551 555
e 552 553
e 552 555
e 552 556
e 553 554
e 553 556
e 553 557
e 554 557
e 555 556
e 555 558
e 556 557
e 556 558
e 556 559
e 557 559
e 558 559
e 558 560
e 559 560
e 561 562
e 561 577
e 561 578
e 561 593
e 562 563
e 562 578
e 562 579
e 562 593
e 562 597
e 563 564
e 563 579
e 563 580
e 563 597
e 563 600
e 564 565
e 564 580
e 564 581
e 564 600
e 564 602
e 565 566
e 565 567
e 565 581
e 565 592
e 565 602
e 566 567
e 566 592
e 566 749
e 566 764
e 566 785
e 567 568
e 567 581
e 567 749
e 567 757
e 568 569
e 568 581
e 568 584
e 568 756
e 568 757
e 569 570
e 569 584
e 569 586
e 569 755
e 569 756
e 570 571
e 570 586
e 570 587
e 570 754
e 570 755
e 571 572
e 571 573
e 571 587
e 571 728
e 571 754
e 572 573
e 572 712
e 572 713
e 572 728
e 573 574
e 573 587
e 574 575
e 574 585
e 574 587
e 575 576
e 575 582
e 575 585
e 576 577
e 576 578
e 576 582
e 577 578
e 578 579
e 578 582
e 579 580
e 579 582
e 579 583
e 580 581
e 580 583
e 580 584
e 581 584
e 582 583
e 582 585
e 583 584
e 583 585
e 583 586
e 584 586
e 585 586
e 585 587
e 586 587
e 588 589
e 588 596
e 589 590
e 589 596
e 589 599
e 590 591
e 590 599
e 590 601
e 591 592
e 591 601
e 591 602
e 592 602
e 593 594
e 593 597
e 594 595
e 594 597
e 594 598
e 595 596
e 595 598
e 595 599
e 596 599
e 597 598
e 597 600
e 598 599
e 598 600
e 598 601
e 599 601
e 600 601
e 600 602
e 601 602
e 603 604
e 603 617
e 603 624
e 603 635
e 604 605
e 604 617
e 604 620
e 604 635
e 604 639
e 605 606
e 605 620
e 605 622
e 605 639
e 605 642
e 606 607
e 606 622
e 606 623
e 606 642
e 606 644
e 607 608
e 607 609
e 607 623
e 607 634
e 607 644
e 608 609
e 608 634
e 608 789
e 608 790
e 608 805
e 609 610
e 609 623
e 610 611
e 610 621
e 610 623
e 611 612
e 611 618
e 611 621
e 612 613
e 612 614
e 612 618
e 613 614
e 614 615
e 614 618
e 615 616
e 615 618
e 615 619
e 616 617
e 616 619
e 616 620
e 617 620
e 618 619
e 618 621
e 619 620
e 619 621
e 619 622
e 620 622
e 621 622
e 621 623
e 622 623
e 624 625
e 624 635
e 625 626
e 625 635
e 625 636
e 626 627
e 626 636
e 626 637
e 627 628
e 627 637
e 627 638
e 628 629
e 628 630
e 628 638
e 629 630
e 629 826
e 630 631
e 630 638
e 630 826
e 630 834
e 631 632
e 631 638
e 631 641
e 631 833
e 631 834
e 632 633
e 632 641
e 632 643
e 632 832
e 632 833
e 633 634
e 633 643
e 633 644
e 633 831
e 633 832
e 634 644
e 634 805
e 634 831
e 635 636
e 635 639
e 636 637
e 636 639
e 636 640
e 637 638
e 637 640
e 637 641
e 638 641
e 639 640
e 639 642
e 640 641
e 640 642
e 640 643
e 641 643
e 642 643
e 642 644
e 643 644
e 645 646
e 645 661
e 645 662
e 645 677
e 646 647
e 646 662
e 646 663
e 646 677
e 646 681
e 647 648
e 647 663
e 647 664
e 647 681
e 647 684
e 648 649
e 648 664
e 648 665
e 648 684
e 648 686
e 649 650
e 649 651
e 649 665
e 649 676
e 649 686
e 650 651
e 650 676
e 650 697
e 650 868
e 651 652
e 651 665
e 651 868
e 651 876
e 652 653
e 652 665
e 652 668
e 652 875
e 652 876
e 653 654
e 653 668
e 653 670
e 653 874
e 653 875
e 654 655
e 654 670
e 654 671
e 654 873
e 654 874
e 655 656
e 655 657
e 655 671
e 655 841
e 655 873
e 656 657
e 656 841
e 656 857
e 657 658
e 657 671
e 658 659
e 658 669
e 658 671
e 659 660
e 659 666
e 659 669
e 660 661
e 660 662
e 660 666
e 661 662
e 662 663
e 662 666
e 663 664
e 663 666
e 663 667
e 664 665
e 664 667
e 664 668
e 665 668
e 666 667
e 666 669
e 667 668
e 667 669
e 667 670
e 668 670
e 669 670
e 669 671
e 670 671
e 672 673
e 672 680
e 672 687
e 672 698
e 673 674
e 673 680
e 673 683
e 673 698
e 673 702
e 674 675
e 674 683
e 674 685
e 674 702
e 674 705
e 675 676
e 675 685
e 675 686
e 675 705
e 675 707
e 676 686
e 676 697
e 676 707
e 677 678
e 677 681
e 678 679
e 678 681
e 678 682
e 679 680
e 679 682
e 679 683
e 680 683
e 681 682
e 681 684
e 682 683
e 682 684
e 682 685
e 683 685
e 684 685
e 684 686
e 685 686
e 687 688
e 687 698
e 687 708
e 687 718
e 688 689
e 688 698
e 688 699
e 688 718
e 688 722
e 689 690
e 689 699
e 689 700
e 689 722
e 689 725
e 690 691
e 690 700
e 690 701
e 690 725
e 690 727
e 691 692
e 691 693
e 691 701
e 691 717
e 691 727
e 692 693
e 692 717
e 692 738
e 692 893
e 693 694
e 693 701
e 694 695
e 694 701
e 694 704
e 695 696
e 695 704
e 695 706
e 696 697
e 696 706
e 696 707
e 697 707
e 698 699
e 698 702
e 699 700
e 699 702
e 699 703
e 700 701
e 700 703
e 700 704
e 701 704
e 702 703
e 702 705
e 703 704
e 703 705
e 703 706
e 704 706
e 705 706
e 705 707
e 706 707
e 708 709
e 708 718
e 709 710
e 709 718
e 709 719
e 710 711
e 710 719
e 710 720
e 711 712
e 711 720
e 711 721
e 712 713
e 712 721
e 713 714
e 713 721
e 713 728
e 713 739
e 714 715
e 714 721
e 714 724
e 714 739
e 714 743
e 715 716
e 715 724
e 715 726
e 715 743
e 715 746
e 716 717
e 716 726
e 716 727
e 716 746
e 716 748
e 717 727
e 717 738
e 717 748
e 718 719
e 718 722
e 719 720
e 719 722
e 719 723
e 720 721
e 720 723
e 720 724
e 721 724
e 722 723
e 722 725
e 723 724
e 723 725
e 723 726
e 724 726
e 725 726
e 725 727
e 726 727
e 728 729
e 728 739
e 728 754
e 729 730
e 729 739
e 729 740
e 729 754
e 729 758
e 730 731
e 730 740
e 730 741
e 730 758
e 730 761
e 731 732
e 731 741
e 731 742
e 731 761
e 731 763
e 732 733
e 732 734
e 732 742
e 732 753
e 732 763
e 733 734
e 733 753
e 733 774
e 733 883
e 733 904
e 734 735
e 734 742
e 734 883
e 734 897
e 735 736
e 735 742
e 735 745
e 735 896
e 735 897
e 736 737
e 736 745
e 736 747
e 736 895
e 736 896
e 737 738
e 737 747
e 737 748
e 737 894
e 737 895
e 738 748
e 738 893
e 738 894
e 739 740
e 739 743
e 740 741
e 740 743
e 740 744
e 741 742
e 741 744
e 741 745
e 742 745
e 743 744
e 743 746
e 744 745
e 744 746
e 744 747
e 745 747
e 746 747
e 746 748
e 747 748
e 749 750
e 749 757
e 749 764
e 749 775
e 750 751
e 750 757
e 750 760
e 750 775
e 750 779
e 751 752
e 751 760
e 751 762
e 751 779
e 751 782
e 752 753
e 752 762
e 752 763
e 752 782
e 752 784
e 753 763
e 753 774
e 753 784
e 754 755
e 754 758
e 755 756
e 755 758
e 755 759
e 756 757
e 756 759
e 756 760
e 757 760
e 758 759
e 758 761
e 759 760
e 759 761
e 759 762
e 760 762
e 761 762
e 761 763
e 762 763
e 764 765
e 764 775
e 764 785
e 764 795
e 765 766
e 765 775
e 765 776
e 765 795
e 765 799
e 766 767
e 766 776
e 766 777
e 766 799
e 766 802
e 767 768
e 767 777
e 767 778
e 767 802
e 767 804
e 768 769
e 768 770
e 768 778
e 768 794
e 768 804
e 769 770
e 769 794
e 769 815
e 769 925
e 769 941
e 770 771
e 770 778
e 771 772
e 771 778
e 771 781
e 772 773
e 772 781
e 772 783
e 773 774
e 773 783
e 773 784
e 774 784
e 775 776
e 775 779
e 776 777
e 776 779
e 776 780
e 777 778
e 777 780
e 777 781
e 778 781
e 779 780
e 779 782
e 780 781
e 780 782
e 780 783
e 781 783
e 782 783
e 782 784
e 783 784
e 785 786
e 785 795
e 786 787
e 786 795
e 786 796
e 787 788
e 787 796
e 787 797
e 788 789
e 788 797
e 788 798
e 789 790
e 789 798
e 790 791
e 790 798
e 790 805
e 790 816
e 791 792
e 791 798
e 791 801
e 791 816
e 791 820
e 792 793
e 792 801
e 792 803
e 792 820
e 792 823
e 793 794
e 793 803
e 793 804
e 793 823
e 793 825
e 794 804
e 794 815
e 794 825
e 795 796
e 795 799
e 796 797
e 796 799
e 796 800
e 797 798
e 797 800
e 797 801
e 798 801
e 799 800
e 799 802
e 800 801
e 800 802
e 800 803
e 801 803
e 802 803
e 802 804
e 803 804
e 805 806
e 805 816
e 805 831
e 806 807
e 806 816
e 806 817
e 806 831
e 806 835
e 807 808
e 807 817
e 807 818
e 807 835
e 807 838
e 808 809
e 808 818
e 808 819
e 808 838
e 808 840
e 809 810
e 809 811
e 809 819
e 809 830
e 809 840
e 810 811
e 810 830
e 810 952
e 811 812
e 811 819
e 811 952
e 811 960
e 812 813
e 812 819
e 812 822
e 812 959
e 812 960
e 813 814
e 813 822
e 813 824
e 813 958
e 813 959
e 814 815
e 814 824
e 814 825
e 814 957
e 814 958
e 815 825
e 815 925
e 815 957
e 816 817
e 816 820
e 817 818
e 817 820
e 817 821
e 818 819
e 818 821
e 818 822
e 819 822
e 820 821
e 820 823
e 821 822
e 821 823
e 821 824
e 822 824
e 823 824
e 823 825
e 824 825
e 826 827
e 826 834
e 827 828
e 827 834
e 827 837
e 828 829
e 828 837
e 828 839
e 829 830
e 829 839
e 829 840
e 830 840
e 831 832
e 831 835
e 832 833
e 832 835
e 832 836
e 833 834
e 833 836
e 833 837
e 834 837
e 835 836
e 835 838
e 836 837
e 836 838
e 836 839
e 837 839
e 838 839
e 838 840
e 839 840
e 841 842
e 841 857
e 841 858
e 841 873
e 842 843
e 842 858
e 842 859
e 842 873
e 842 877
e 843 844
e 843 859
e 843 860
e 843 877
e 843 880
e 844 845
e 844 860
e 844 861
e 844 880
e 844 882
e 845 846
e 845 847
e 845 861
e 845 872
e 845 882
e 846 847
e 846 872
e 846 967
e 846 988
e 846 1009
e 847 848
e 847 861
e 847 967
e 847 981
e 848 849
e 848 861
e 848 864
e 848 980
e 848 981
e 849 850
e 849 864
e 849 866
e 849 979
e 849 980
e 850 851
e 850 866
e 850 867
e 850 978
e 850 979
e 851 852
e 851 853
e 851 867
e 851 977
e 851 978
e 852 853
e 852 977
e 853 854
e 853 867
e 854 855
e 854 865
e 854 867
e 855 856
e 855 862
e 855 865
e 856 857
e 856 858
e 856 862
e 857 858
e 858 859
e 858 862
e 859 860
e 859 862
e 859 863
e 860 861
e 860 863
e 860 864
e 861 864
e 862 863
e 862 865
e 863 864
e 863 865
e 863 866
e 864 866
e 865 866
e 865 867
e 866 867
e 868 869
e 868 876
e 869 870
e 869 876
e 869 879
e 870 871
e 870 879
e 870 881
e 871 872
e 871 881
e 871 882
e 872 882
e 873 874
e 873 877
e 874 875
e 874 877
e 874 878
e 875 876
e 875 878
e 875 879
e 876 879
e 877 878
e 877 880
e 878 879
e 878 880
e 878 881
e 879 881
e 880 881
e 880 882
e 881 882
e 883 884
e 883 897
e 883 904
e 883 915
e 884 885
e 884 897
e 884 900
e 884 915
e 884 919
e 885 886
e 885 900
e 885 902
e 885 919
e 885 922
e 886 887
e 886 902
e 886 903
e 886 922
e 886 924
e 887 888
e 887 889
e 887 903
e 887 914
e 887 924
e 888 889
e 888 914
e 888 1013
e 888 1014
e 888 1029
e 889 890
e 889 903
e 890 891
e 890 901
e 890 903
e 891 892
e 891 898
e 891 901
e 892 893
e 892 894
e 892 898
e 893 894
e 894 895
e 894 898
e 895 896
e 895 898
e 895 899
e 896 897
e 896 899
e 896 900
e 897 900
e 898 899
e 898 901
e 899 900
e 899 901
e 899 902
e 900 902
e 901 902
e 901 903
e 902 903
e 904 905
e 904 915
e 905 906
e 905 915
e 905 916
e 906 907
e 906 916
e 906 917
e 907 908
e 907 917
e 907 918
e 908 909
e 908 910
e 908 918
e 909 910
e 909 1050
e 909 1065
e 909 1086
e 910 911
e 910 918
e 910 1050
e 910 1058
e 911 912
e 911 918
e 911 921
e 911 1057
e 911 1058
e 912 913
e 912 921
e 912 923
e 912 1056
e 912 1057
e 913 914
e 913 923
e 913 924
e 913 1055
e 913 1056
e 914 924
e 914 1029
e 914 1055
e 915 916
e 915 919
e 916 917
e 916 919
e 916 920
e 917 918
e 917 920
e 917 921
e 918 921
e 919 920
e 919 922
e 920 921
e 920 922
e 920 923
e 921 923
e 922 923
e 922 924
e 923 924
e 925 926
e 925 941
e 925 942
e 925 957
e 926 927
e 926 942
e 926 943
e 926 957
e 926 961
e 927 928
e 927 943
e 927 944
e 927 961
e 927 964
e 928 929
e 928 944
e 928 945
e 928 964
e 928 966
e 929 930
e 929 931
e 929 945
e 929 956
e 929 966
e 930 931
e 930 956
e 930 1127
e 931 932
e 931 945
e 931 1127
e 931 1135
e 932 933
e 932 945
e 932 948
e 932 1134
e 932 1135
e 933 934
e 933 948
e 933 950
e 933 1133
e 933 1134
e 934 935
e 934 950
e 934 951
e 934 1132
e 934 1133
e 935 936
e 935 937
e 935 951
e 935 1106
e 935 1132
e 936 937
e 936 1090
e 936 1091
e 936 1106
e 937 938
e 937 951
e 938 939
e 938 949
e 938 951
e 939 940
e 939 946
e 939 949
e 940 941
e 940 942
e 940 946
e 941 942
e 942 943
e 942 946
e 943 944
e 943 946
e 943 947
e 944 945
e 944 947
e 944 948
e 945 948
e 946 947
e 946 949
e 947 948
e 947 949
e 947 950
e 948 950
e 949 950
e 949 951
e 950 951
e 952 953
e 952 960
e 953 954
e 953 960
e 953 963
e 954 955
e 954 963
e 954 965
e 955 956
e 955 965
e 955 966
e 956 966
e 957 958
e 957 961
e 958 959
e 958 961
e 958 962
e 959 960
e 959 962
e 959 963
e 960 963
e 961 962
e 961 964
e 962 963
e 962 964
e 962 965
e 963 965
e 964 965
e 964 966
e 965 966
e 967 968
e 967 981
e 967 988
e 967 1002
e 968 969
e 968 981
e 968 984
e 968 1001
e 968 1002
e 969 970
e 969 984
e 969 986
e 969 1000
e 969 1001
e 970 971
e 970 986
e 970 987
e 970 999
e 970 1000
e 971 972
e 971 973
e 971 987
e 971 998
e 971 999
e 972 973
e 972 998
e 973 974
e 973 987
e 974 975
e 974 985
e 974 987
e 975 976
e 975 982
e 975 985
e 976 977
e 976 978
e 976 982
e 977 978
e 978 979
e 978 982
e 979 980
e 979 982
e 979 983
e 980 981
e 980 983
e 980 984
e 981 984
e 982 983
e 982 985
e 983 984
e 983 985
e 983 986
e 984 986
e 985 986
e 985 987
e 986 987
e 988 989
e 988 1002
e 988 1009
e 988 1019
e 989 990
e 989 1002
e 989 1005
e 989 1019
e 989 1023
e 990 991
e 990 1005
e 990 1007
e 990 1023
e 990 1026
e 991 992
e 991 1007
e 991 1008
e 991 1026
e 991 1028
e 992 993
e 992 994
e 992 1008
e 992 1018
e 992 1028
e 993 994
e 993 1018
e 993 1039
e 994 995
e 994 1008
e 995 996
e 995 1006
e 995 1008
e 996 997
e 996 1003
e 996 1006
e 997 998
e 997 999
e 997 1003
e 998 999
e 999 1000
e 999 1003
e 1000 1001
e 1000 1003
e 1000 1004
e 1001 1002
e 1001 1004
e 1001 1005
e 1002 1005
e 1003 1004
e 1003 1006
e 1004 1005
e 1004 1006
e 1004 1007
e 1005 1007
e 1006 1007
e 1006 1008
e 1007 1008
e 1009 1010
e 1009 1019
e 1010 1011
e 1010 1019
e 1010 1020
e 1011 1012
e 1011 1020
e 1011 1021
e 1012 1013
e 1012 1021
e 1012 1022
e 1013 1014
e 1013 1022
e 1014 1015
e 1014 1022
e 1014 1029
e 1014 1040
e 1015 1016
e 1015 1022
e 1015 1025
e 1015 1040
e 1015 1044
e 1016 1017
e 1016 1025
e 1016 1027
e 1016 1044
e 1016 1047
e 1017 1018
e 1017 1027
e 1017 1028
e 1017 1047
e 1017 1049
e 1018 1028
e 1018 1039
e 1018 1049
e 1019 1020
e 1019 1023
e 1020 1021
e 1020 1023
e 1020 1024
e 1021 1022
e 1021 1024
e 1021 1025
e 1022 1025
e 1023 1024
e 1023 1026
e 1024 1025
e 1024 1026
e 1024 1027
e 1025 1027
e 1026 1027
e 1026 1028
e 1027 1028
e 1029 1030
e 1029 1040
e 1029 1055
e 1030 1031
e 1030 1040
e 1030 1041
e 1030 1055
e 1030 1059
e 1031 1032
e 1031 1041
e 1031 1042
e 1031 1059
e 1031 1062
e 1032 1033
e 1032 1042
e 1032 1043
e 1032 1062
e 1032 1064
e 1033 1034
e 1033 1035
e 1033 1043
e 1033 1054
e 1033 1064
e 1034 1035
e 1034 1054
e 1034 1075
e 1035 1036
e 1035 1043
e 1036 1037
e 1036 1043
e 1036 1046
e 1037 1038
e 1037 1046
e 1037 1048
e 1038 1039
e 1038 1048
e 1038 1049
e 1039 1049
e 1040 1041
e 1040 1044
e 1041 1042
e 1041 1044
e 1041 1045
e 1042 1043
e 1042 1045
e 1042 1046
e 1043 1046
e 1044 1045
e 1044 1047
e 1045 1046
e 1045 1047
e 1045 1048
e 1046 1048
e 1047 1048
e 1047 1049
e 1048 1049
e 1050 1051
e 1050 1058
e 1050 1065
e 1050 1076
e 1051 1052
e 1051 1058
e 1051 1061
e 1051 1076
e 1051 1080
e 1052 1053
e 1052 1061
e 1052 1063
e 1052 1080
e 1052 1083
e 1053 1054
e 1053 1063
e 1053 1064
e 1053 1083
e 1053 1085
e 1054 1064
e 1054 1075
e 1054 1085
e 1055 1056
e 1055 1059
e 1056 1057
e 1056 1059
e 1056 1060
e 1057 1058
e 1057 1060
e 1057 1061
e 1058 1061
e 1059 1060
e 1059 1062
e 1060 1061
e 1060 1062
e 1060 1063
e 1061 1063
e 1062 1063
e 1062 1064
e 1063 1064
e 1065 1066
e 1065 1076
e 1065 1086
e 1065 1096
e 1066 1067
e 1066 1076
e 1066 1077
e 1066 1096
e 1066 1100
e 1067 1068
e 1067 1077
e 1067 1078
e 1067 1100
e 1067 1103
e 1068 1069
e 1068 1078
e 1068 1079
e 1068 1103
e 1068 1105
e 1069 1070
e 1069 1071
e 1069 1079
e 1069 1095
e 1069 1105
e 1070 1071
e 1070 1095
e 1070 1116
e 1071 1072
e 1071 1079
e 1072 1073
e 1072 1079
e 1072 1082
e 1073 1074
e 1073 1082
e 1073 1084
e 1074 1075
e 1074 1084
e 1074 1085
e 1075 1085
e 1076 1077
e 1076 1080
e 1077 1078
e 1077 1080
e 1077 1081
e 1078 1079
e 1078 1081
e 1078 1082
e 1079 1082
e 1080 1081
e 1080 1083
e 1081 1082
e 1081 1083
e 1081 1084
e 1082 1084
e 1083 1084
e 1083 1085
e 1084 1085
e 1086 1087
e 1086 1096
e 1087 1088
e 1087 1096
e 1087 1097
e 1088 1089
e 1088 1097
e 1088 1098
e 1089 1090
e 1089 1098
e 1089 1099
e 1090 1091
e 1090 1099
e 1091 1092
e 1091 1099
e 1091 1106
e 1091 1117
e 1092 1093
e 1092 1099
e 1092 1102
e 1092 1117
e 1092 1121
e 1093 1094
e 1093 1102
e 1093 1104
e 1093 1121
e 1093 1124
e 1094 1095
e 1094 1104
e 1094 1105
e 1094 1124
e 1094 1126
e 1095 1105
e 1095 1116
e 1095 1126
e 1096 1097
e 1096 1100
e 1097 1098
e 1097 1100
e 1097 1101
e 1098 1099
e 1098 1101
e 1098 1102
e 1099 1102
e 1100 1101
e 1100 1103
e 1101 1102
e 1101 1103
e 1101 1104
e 1102 1104
e 1103 1104
e 1103 1105
e 1104 1105
e 1106 1107
e 1106 1117
e 1106 1132
e 1107 1108
e 1107 1117
e 1107 1118
e 1107 1132
e 1107 1136
e 1108 1109
e 1108 1118
e 1108 1119
e 1108 1136
e 1108 1139
e 1109 1110
e 1109 1119
e 1109 1120
e 1109 1139
e 1109 1141
e 1110 1111
e 1110 1112
e 1110 1120
e 1110 1131
e 1110 1141
e 1111 1112
e 1111 1131
e 1112 1113
e 1112 1120
e 1113 1114
e 1113 1120
e 1113 1123
e 1114 1115
e 1114 1123
e 1114 1125
e 1115 1116
e 1115 1125
e 1115 1126
e 1116 1126
e 1117 1118
e 1117 1121
e 1118 1119
e 1118 1121
e 1118 1122
e 1119 1120
e 1119 1122
e 1119 1123
e 1120 1123
e 1121 1122
e 1121 1124
e 1122 1123
e 1122 1124
e 1122 1125
e 1123 1125
e 1124 1125
e 1124 1126
e 1125 1126
e 1127 1128
e 1127 1135
e 1128 1129
e 1128 1135
e 1128 1138
e 1129 1130
e 1129 1138
e 1129 1140
e 1130 1131
e 1130 1140
e 1130 1141
e 1131 1141
e 1132 1133
e 1132 1136
e 1133 1134
e 1133 1136
e 1133 1137
e 1134 1135
e 1134 1137
e 1134 1138
e 1135 1138
e 1136 1137
e 1136 1139
e 1137 1138
e 1137 1139
e 1137 1140
e 1138 1140
e 1139 1140
e 1139 1141
e 1140 1141
